31	3	3
7	7	9	58	104	83	
0	0	0	0	4	9	5	8	3	2	30	2	3	4	5	6	7	8	9	10	11	12	13	14	15	16	17	18	19	20	21	22	23	24	25	26	27	28	29	30	31
2	2	2	3	8	4	9	10	5	5	2	6	21
3	3	2	2	5	10	7	4	6	4	1	5
4	2	2	2	4	3	7	10	9	10	1	31
3	1	2	3	5	4	9	10	5	9	1	11
3	3	2	3	5	9	7	9	6	10	1	31
2	2	1	1	1	4	4	9	3	8	1	31
2	2	1	1	4	8	7	1	2	3	1	25
3	2	1	1	4	5	6	10	5	4	1	18
4	2	2	3	9	9	8	8	9	2	1	15
3	3	2	3	6	3	1	3	2	6	1	31
2	4	1	3	3	2	10	6	1	3	1	16
4	2	1	2	3	4	1	10	5	2	1	20
2	2	2	2	2	8	6	7	7	10	1	18
2	1	1	2	1	6	9	8	3	7	1	19
1	2	2	1	10	9	10	10	2	2	1	31
3	4	2	1	6	4	3	6	10	4	1	28
2	5	1	2	8	3	8	9	2	2	1	31
2	2	1	3	10	4	9	6	10	6	1	31
2	3	2	3	6	1	2	5	9	5	1	21
2	3	1	1	1	8	3	1	8	5	1	31
2	3	2	1	2	4	9	5	10	8	1	31
2	2	2	1	8	7	1	5	6	2	1	31
3	3	1	2	7	5	6	6	1	6	1	31
3	3	1	3	1	7	6	3	1	4	1	31
1	3	1	3	7	1	2	10	1	10	1	31
3	2	2	2	4	3	4	2	7	3	1	31
3	2	1	3	10	4	10	10	9	5	1	31
3	3	1	3	2	6	10	7	1	1	1	31
4	5	2	2	3	2	7	8	4	7	1	31
0	0	0	0	2	10	8	4	10	9	0
